50, 11525
718, 683
482, 92
214, 618
618, 842
49, 835
450, 516
557, 632
3, 370
649, 529
89, 108
650, 683
342, 601
30, 282
1000, 379
65, 737
157, 444
506, 960
246, 972
531, 839
475, 92
577, 76
544, 289
295, 362
212, 705
695, 827
429, 563
521, 640
916, 574
9, 35
278, 527
564, 214
54, 417
754, 9
402, 656
317, 911
195, 69
967, 581
47, 24
822, 352
705, 160
898, 861
702, 729
347, 897
550, 218
922, 719
41, 700
850, 511
674, 917
197, 625
967, 283
